Problem:    
Rows:       256
Columns:    89 (72 integer, 72 binary)
Non-zeros:  960
Status:     INTEGER OPTIMAL
Objective:  value = 11.249084 (MINimum)

   No.   Row name        Activity     Lower bound   Upper bound
------ ------------    ------------- ------------- -------------
     1 r.5                   1011.25             0               
     2 r.6                  -992.082      -998.503               
     3 r.7                   11.2491             0               
     4 r.8                   8.28983      -995.582               
     5 r.9                   11.2491             0               
     6 r.10                 -997.804      -998.329               
     7 r.11                  1011.25             0               
     8 r.12                 -994.648      -995.172               
     9 r.13                  1011.25             0               
    10 r.14                 -994.017      -997.656               
    11 r.15                  11.2491             0               
    12 r.16                  6.92516      -992.342               
    13 r.17                  1011.25             0               
    14 r.18                  -998.33      -998.854               
    15 r.19                  11.2491             0               
    16 r.20                  4.14341      -995.873               
    17 r.21                  1011.25             0               
    18 r.22                 -996.799      -998.908               
    19 r.23                  11.2491             0               
    20 r.24                  6.92516      -996.047               
    21 r.25                  1011.25             0               
    22 r.26                 -999.914      -999.914               
    23 r.27                  11.2491             0               
    24 r.28                 -997.819      -997.819               
    25 r.29                  1011.25             0               
    26 r.30                 -988.751      -997.041               
    27 r.31                  11.2491             0               
    28 r.32                  11.2491      -988.078               
    29 r.33                  11.2491             0               
    30 r.34                  11.2491      -997.034               
    31 r.35                  1011.25             0               
    32 r.36                 -988.751      -995.172               
    33 r.37                        1             1             = 
    34 r.38                        1             1             = 
    35 r.39                        1             1             = 
    36 r.40                        1             1             = 
    37 r.41                        1             1             = 
    38 r.42                        1             1             = 
    39 r.43                        1             1             = 
    40 r.44                        1             1             = 
    41 r.45                     1001             2               
    42 r.46                    -1001         -1001               
    43 r.47                  994.277      -998.329               
    44 r.48                     1001             2               
    45 r.49                    -1001         -1001               
    46 r.50                  1997.06      -995.172               
    47 r.51                        2             2               
    48 r.52                       -2         -1001               
    49 r.53                 -1.93546      -997.656               
    50 r.54                     1000             2               
    51 r.55                    -1000         -1001               
    52 r.56                  1998.64      -992.342               
    53 r.57                        2             2               
    54 r.58                       -2         -1001               
    55 r.59                 -6.24777      -998.854               
    56 r.60                     1000             2               
    57 r.61                    -1000         -1001               
    58 r.62                  1995.85      -995.873               
    59 r.63                        2             2               
    60 r.64                       -2         -1001               
    61 r.65                 -4.71721      -998.908               
    62 r.66                     1000             2               
    63 r.67                    -1000         -1001               
    64 r.68                  1998.64      -996.047               
    65 r.69                 -992.606      -998.503               
    66 r.70                  7.76537      -995.582               
    67 r.71                  6.24106      -998.503               
    68 r.72                  1006.61      -995.582               
    69 r.73                 -996.669      -997.041               
    70 r.74                  3.33086      -988.078               
    71 r.75                 -997.041      -997.041               
    72 r.76                  2.95926      -988.078               
    73 r.77                     1001             2               
    74 r.78                    -1001         -1001               
    75 r.79                  2003.33      -997.034               
    76 r.80                     1001             2               
    77 r.81                    -1001         -1001               
    78 r.82                  2002.96      -995.172               
    79 r.83                     1001             2               
    80 r.84                    -1001         -1001               
    81 r.85                  3005.72        1.4973               
    82 r.86                     1001             2               
    83 r.87                    -1001         -1001               
    84 r.88                  2002.94       4.41774               
    85 r.89                     1001             2               
    86 r.90                    -1001         -1001               
    87 r.91                  3003.79      -997.656               
    88 r.92                     1001             2               
    89 r.93                    -1001         -1001               
    90 r.94                  2001.57      -992.342               
    91 r.95                     1001             2               
    92 r.96                    -1001         -1001               
    93 r.97                  2999.47      -998.854               
    94 r.98                     1001             2               
    95 r.99                    -1001         -1001               
    96 r.100                 1998.79      -995.873               
    97 r.101                    1001             2               
    98 r.102                   -1001         -1001               
    99 r.103                 3001.01      -998.908               
   100 r.104                    1001             2               
   101 r.105                   -1001         -1001               
   102 r.106                 2001.57      -996.047               
   103 r.107                -998.329      -998.329               
   104 r.108                -995.172      -995.172               
   105 r.109                0.518397      -998.329               
   106 r.110                 3.67481      -995.172               
   107 r.111                    1001             2               
   108 r.112                   -1001         -1001               
   109 r.113                 3009.05      -997.041               
   110 r.114                    1001             2               
   111 r.115                   -1001         -1001               
   112 r.116                  2005.9      -988.078               
   113 r.117                 1009.05      -997.034               
   114 r.118                 9.05353      -995.172               
   115 r.119                 5.89711      -997.034               
   116 r.120                -994.103      -995.172               
   117 r.121                       2             2               
   118 r.122                      -2         -1001               
   119 r.123                  1.4973        1.4973               
   120 r.124                    1000             2               
   121 r.125                   -1000         -1001               
   122 r.126                 2001.87       4.41774               
   123 r.127                    1001             2               
   124 r.128                   -1001         -1001               
   125 r.129                 995.775        1.6711               
   126 r.130                    1001             2               
   127 r.131                   -1001         -1001               
   128 r.132                 1998.93       4.82751               
   129 r.133                -996.126      -997.656               
   130 r.134                 4.81655      -992.342               
   131 r.135                -997.656      -997.656               
   132 r.136                   3.286      -992.342               
   133 r.137                       2             2               
   134 r.138                      -2         -1001               
   135 r.139                -3.21991      -998.908               
   136 r.140                    1000             2               
   137 r.141                   -1000         -1001               
   138 r.142                  2000.5      -996.047               
   139 r.143                -994.542      -997.656               
   140 r.144                 6.40071      -992.342               
   141 r.145                 4.30561      -997.656               
   142 r.146                 1005.25      -992.342               
   143 r.147                       2             2               
   144 r.148                      -2         -1001               
   145 r.149                -995.172      -997.041               
   146 r.150                    1000             2               
   147 r.151                   -1000         -1001               
   148 r.152                 2004.83      -988.078               
   149 r.153                 4.82816      -997.034               
   150 r.154                -995.172      -995.172               
   151 r.155                 4.82816      -997.034               
   152 r.156                -995.172      -995.172               
   153 r.157                       2             2               
   154 r.158                      -2         -1001               
   155 r.159                 5.80961        1.4973               
   156 r.160                    1000             2               
   157 r.161                   -1000         -1001               
   158 r.162                 2004.65       4.41774               
   159 r.163                    1001             2               
   160 r.164                   -1001         -1001               
   161 r.165                 1000.09        1.6711               
   162 r.166                    1001             2               
   163 r.167                   -1001         -1001               
   164 r.168                 2001.71       4.82751               
   165 r.169                       2             2               
   166 r.170                      -2         -1001               
   167 r.171                -998.908      -998.908               
   168 r.172                    1000             2               
   169 r.173                   -1000         -1001               
   170 r.174                 2003.29      -996.047               
   171 r.175                -998.854      -998.854               
   172 r.176                 3.61895      -995.873               
   173 r.177               -0.006703      -998.854               
   174 r.178                 1002.47      -995.873               
   175 r.179                       2             2               
   176 r.180                      -2         -1001               
   177 r.181                 -990.86      -997.041               
   178 r.182                    1000             2               
   179 r.183                   -1000         -1001               
   180 r.184                 2007.61      -988.078               
   181 r.185                 9.14047      -997.034               
   182 r.186                 -990.86      -995.172               
   183 r.187                 7.60992      -997.034               
   184 r.188                 -992.39      -995.172               
   185 r.189                       2             2               
   186 r.190                      -2         -1001               
   187 r.191                 4.27906        1.4973               
   188 r.192                    1000             2               
   189 r.193                   -1000         -1001               
   190 r.194                 2001.87       4.41774               
   191 r.195                    1001             2               
   192 r.196                   -1001         -1001               
   193 r.197                 998.556        1.6711               
   194 r.198                    1001             2               
   195 r.199                   -1001         -1001               
   196 r.200                 1998.93       4.82751               
   197 r.201                       2             2               
   198 r.202                      -2         -1001               
   199 r.203                  2.3436        2.3436               
   200 r.204                    1000             2               
   201 r.205                   -1000         -1001               
   202 r.206                  2000.5       7.65829               
   203 r.207                       2             2               
   204 r.208                      -2         -1001               
   205 r.209                 998.031         1.146               
   206 r.210                    1000             2               
   207 r.211                   -1000         -1001               
   208 r.212                 1997.72       4.12676               
   209 r.213                -997.323      -998.908               
   210 r.214                 6.40071      -996.047               
   211 r.215                 1.52385      -998.908               
   212 r.216                 1005.25      -996.047               
   213 r.217                 -992.39      -997.041               
   214 r.218                 7.60992      -988.078               
   215 r.219                -995.172      -997.041               
   216 r.220                 4.82816      -988.078               
   217 r.221                 7.60992      -997.034               
   218 r.222                 -992.39      -995.172               
   219 r.223                 4.82816      -997.034               
   220 r.224                -995.172      -995.172               
   221 r.225                    1001             2               
   222 r.226                   -1001         -1001               
   223 r.227                 990.946        1.6711               
   224 r.228                    1001             2               
   225 r.229                   -1001         -1001               
   226 r.230                  1994.1       4.82751               
   227 r.231                       2             2               
   228 r.232                      -2         -1001               
   229 r.233                 994.734        2.3436               
   230 r.234                    1000             2               
   231 r.235                   -1000         -1001               
   232 r.236                 1995.68       7.65829               
   233 r.237                       2             2               
   234 r.238                      -2         -1001               
   235 r.239                 990.421         1.146               
   236 r.240                    1000             2               
   237 r.241                   -1000         -1001               
   238 r.242                 1992.89       4.12676               
   239 r.243                    1001             2               
   240 r.244                   -1001         -1001               
   241 r.245                    2000      -997.034               
   242 r.246                    1001             2               
   243 r.247                   -1001         -1001               
   244 r.248                    2000      -995.172               
   245 r.249                    1001             2               
   246 r.250                   -1001         -1001               
   247 r.251                 1996.67        1.4973               
   248 r.252                    1001             2               
   249 r.253                   -1001         -1001               
   250 r.254                 1997.04       4.41774               
   251 r.255                    1001             2               
   252 r.256                   -1001         -1001               
   253 r.257                    2000       2.95926               
   254 r.258                    1001             2               
   255 r.259                   -1001         -1001               
   256 r.260                    2000        11.922               

   No. Column name       Activity     Lower bound   Upper bound
------ ------------    ------------- ------------- -------------
     1 tt                    11.2491             0               
     2 s_1_1        *              1             0             1 
     3 t_1_1                 3.33086             0               
     4 s_1_7        *              1             0             1 
     5 s_2_1        *              0             0             1 
     6 t_2_1                 2.95926             0               
     7 s_2_7        *              0             0             1 
     8 s_1_2        *              0             0             1 
     9 t_1_2                 1009.05             0               
    10 s_1_8        *              0             0             1 
    11 s_2_2        *              1             0             1 
    12 t_2_2                 5.89711             0               
    13 s_2_8        *              1             0             1 
    14 s_1_3        *              1             0             1 
    15 t_1_3                 4.82816             0               
    16 s_2_3        *              0             0             1 
    17 t_2_3                 4.82816             0               
    18 s_1_4        *              1             0             1 
    19 t_1_4                 9.14047             0               
    20 s_2_4        *              0             0             1 
    21 t_2_4                 7.60992             0               
    22 s_1_5        *              1             0             1 
    23 t_1_5                 7.60992             0               
    24 s_2_5        *              0             0             1 
    25 t_2_5                 4.82816             0               
    26 s_1_6        *              1             0             1 
    27 t_1_6                 10.7246             0               
    28 s_2_6        *              0             0             1 
    29 t_2_6                 1009.57             0               
    30 t_1_7                       0             0               
    31 t_2_7                       0             0               
    32 t_1_8                       0             0               
    33 t_2_8                       0             0               
    34 r_1_1_2      *              1             0             1 
    35 u_1_1_2      *              0             0             1 
    36 r_2_1_2      *              1             0             1 
    37 u_2_1_2      *              0             0             1 
    38 r_1_1_3      *              0             0             1 
    39 u_1_1_3      *              0             0             1 
    40 r_2_1_3      *              1             0             1 
    41 u_2_1_3      *              0             0             1 
    42 r_1_1_4      *              0             0             1 
    43 u_1_1_4      *              0             0             1 
    44 r_2_1_4      *              1             0             1 
    45 u_2_1_4      *              0             0             1 
    46 r_1_1_5      *              0             0             1 
    47 u_1_1_5      *              0             0             1 
    48 r_2_1_5      *              1             0             1 
    49 u_2_1_5      *              0             0             1 
    50 r_1_1_8      *              1             0             1 
    51 u_1_1_8      *              0             0             1 
    52 r_2_1_8      *              1             0             1 
    53 u_2_1_8      *              0             0             1 
    54 r_1_2_3      *              1             0             1 
    55 u_1_2_3      *              0             0             1 
    56 r_2_2_3      *              1             0             1 
    57 u_2_2_3      *              0             0             1 
    58 r_1_2_4      *              1             0             1 
    59 u_1_2_4      *              0             0             1 
    60 r_2_2_4      *              1             0             1 
    61 u_2_2_4      *              0             0             1 
    62 r_1_2_5      *              1             0             1 
    63 u_1_2_5      *              0             0             1 
    64 r_2_2_5      *              1             0             1 
    65 u_2_2_5      *              0             0             1 
    66 r_1_2_7      *              1             0             1 
    67 u_1_2_7      *              0             0             1 
    68 r_2_2_7      *              1             0             1 
    69 u_2_2_7      *              0             0             1 
    70 r_1_3_5      *              0             0             1 
    71 u_1_3_5      *              0             0             1 
    72 r_2_3_5      *              1             0             1 
    73 u_2_3_5      *              0             0             1 
    74 r_1_3_7      *              0             0             1 
    75 u_1_3_7      *              1             0             1 
    76 r_2_3_7      *              1             0             1 
    77 u_2_3_7      *              0             0             1 
    78 r_1_4_5      *              0             0             1 
    79 u_1_4_5      *              1             0             1 
    80 r_2_4_5      *              1             0             1 
    81 u_2_4_5      *              0             0             1 
    82 r_1_4_7      *              0             0             1 
    83 u_1_4_7      *              1             0             1 
    84 r_2_4_7      *              1             0             1 
    85 u_2_4_7      *              0             0             1 
    86 r_1_7_8      *              1             0             1 
    87 u_1_7_8      *              0             0             1 
    88 r_2_7_8      *              1             0             1 
    89 u_2_7_8      *              0             0             1 

Integer feasibility conditions:

KKT.PE: max.abs.err = 4.55e-13 on row 99
        max.rel.err = 1.12e-16 on row 22
        High quality

KKT.PB: max.abs.err = 0.00e+00 on row 0
        max.rel.err = 0.00e+00 on row 0
        High quality

End of output
